\ Model MTZ_MODEL
\ LP format - for model browsing. Use MPS format to capture full model detail.
Minimize
  p[0,1] + p[0,2] + p[0,3] + p[0,4] + p[0,5] + p[1,0] + p[1,2] + p[1,3]
   + p[1,4] + p[1,5] + p[2,0] + p[2,1] + p[2,3] + p[2,4] + p[2,5] + p[3,0]
   + p[3,1] + p[3,2] + p[3,4] + p[3,5] + p[4,0] + p[4,1] + p[4,2] + p[4,3]
   + p[4,5] + p[5,0] + p[5,1] + p[5,2] + p[5,3] + p[5,4] + dc[0] + dc[1]
   + dc[2] + dc[3] + dc[4] + dc[5] + 0 difc[0,0] + 0 difc[0,1]
   + 0 difc[1,0] + 0 difc[1,1] + 0 difc[2,0] + 0 difc[2,1] + 0 difc[3,0]
   + 0 difc[3,1] + 0 difc[4,0] + 0 difc[4,1] + 0 difc[5,0] + 0 difc[5,1]
Subject To
 p2: p[0,1] - 47.62382463424753 z[0,1] >= 0
 p3: p[0,1] - 63.90053147127758 z[0,1] - dcc[0,1] >= -63.90053147127758
 R2: dcc[0,1] <= 63.90053147127758
 R3: x[0,1,0] - x[1,0,0] + dif[0,1,0] >= 0
 R4: - x[0,1,0] + x[1,0,0] + dif[0,1,0] >= 0
 R5: x[0,1,1] - x[1,0,1] + dif[0,1,1] >= 0
 R6: - x[0,1,1] + x[1,0,1] + dif[0,1,1] >= 0
 p2: p[0,2] - 36.13198734583775 z[0,2] >= 0
 p3: p[0,2] - 56.899236025729 z[0,2] - dcc[0,2] >= -56.899236025729
 R9: dcc[0,2] <= 56.899236025729
 R10: x[0,1,0] - x[2,0,0] + dif[0,2,0] >= 0
 R11: - x[0,1,0] + x[2,0,0] + dif[0,2,0] >= 0
 R12: x[0,1,1] - x[2,0,1] + dif[0,2,1] >= 0
 R13: - x[0,1,1] + x[2,0,1] + dif[0,2,1] >= 0
 p2: p[0,3] - 14.24882526270977 z[0,3] >= 0
 p3: p[0,3] - 34.07469318239221 z[0,3] - dcc[0,3] >= -34.07469318239221
 R16: dcc[0,3] <= 34.07469318239221
 R17: x[0,1,0] - x[3,0,0] + dif[0,3,0] >= 0
 R18: - x[0,1,0] + x[3,0,0] + dif[0,3,0] >= 0
 R19: x[0,1,1] - x[3,0,1] + dif[0,3,1] >= 0
 R20: - x[0,1,1] + x[3,0,1] + dif[0,3,1] >= 0
 p2: p[0,4] - 63.21108571426412 z[0,4] >= 0
 p3: p[0,4] - 74.28678407035702 z[0,4] - dcc[0,4] >= -74.28678407035702
 R23: dcc[0,4] <= 74.28678407035702
 R24: x[0,1,0] - x[4,0,0] + dif[0,4,0] >= 0
 R25: - x[0,1,0] + x[4,0,0] + dif[0,4,0] >= 0
 R26: x[0,1,1] - x[4,0,1] + dif[0,4,1] >= 0
 R27: - x[0,1,1] + x[4,0,1] + dif[0,4,1] >= 0
 p2: p[0,5] - 32.5254966185824 z[0,5] >= 0
 p3: p[0,5] - 52.4331195472465 z[0,5] - dcc[0,5] >= -52.4331195472465
 R30: dcc[0,5] <= 52.4331195472465
 R31: x[0,1,0] - x[5,0,0] + dif[0,5,0] >= 0
 R32: - x[0,1,0] + x[5,0,0] + dif[0,5,0] >= 0
 R33: x[0,1,1] - x[5,0,1] + dif[0,5,1] >= 0
 R34: - x[0,1,1] + x[5,0,1] + dif[0,5,1] >= 0
 p2: p[1,0] - 47.62382463424753 z[1,0] >= 0
 p3: p[1,0] - 63.90053147127758 z[1,0] - dcc[1,0] >= -63.90053147127758
 R37: dcc[1,0] <= 63.90053147127758
 R38: - x[0,0,0] + x[1,1,0] + dif[1,0,0] >= 0
 R39: x[0,0,0] - x[1,1,0] + dif[1,0,0] >= 0
 R40: - x[0,0,1] + x[1,1,1] + dif[1,0,1] >= 0
 R41: x[0,0,1] - x[1,1,1] + dif[1,0,1] >= 0
 p2: p[1,2] - 19.79243373804216 z[1,2] >= 0
 p3: p[1,2] - 32.8478866957146 z[1,2] - dcc[1,2] >= -32.8478866957146
 R44: dcc[1,2] <= 32.8478866957146
 R45: x[1,1,0] - x[2,0,0] + dif[1,2,0] >= 0
 R46: - x[1,1,0] + x[2,0,0] + dif[1,2,0] >= 0
 R47: x[1,1,1] - x[2,0,1] + dif[1,2,1] >= 0
 R48: - x[1,1,1] + x[2,0,1] + dif[1,2,1] >= 0
 p2: p[1,3] - 50.20467776369988 z[1,3] >= 0
 p3: p[1,3] - 63.95026433211194 z[1,3] - dcc[1,3] >= -63.95026433211194
 R51: dcc[1,3] <= 63.95026433211194
 R52: x[1,1,0] - x[3,0,0] + dif[1,3,0] >= 0
 R53: - x[1,1,0] + x[3,0,0] + dif[1,3,0] >= 0
 R54: x[1,1,1] - x[3,0,1] + dif[1,3,1] >= 0
 R55: - x[1,1,1] + x[3,0,1] + dif[1,3,1] >= 0
 p2: p[1,4] - 10.9303655279118 z[1,4] >= 0
 p3: p[1,4] - 19.49495235838991 z[1,4] - dcc[1,4] >= -19.49495235838991
 R58: dcc[1,4] <= 19.49495235838991
 R59: x[1,1,0] - x[4,0,0] + dif[1,4,0] >= 0
 R60: - x[1,1,0] + x[4,0,0] + dif[1,4,0] >= 0
 R61: x[1,1,1] - x[4,0,1] + dif[1,4,1] >= 0
 R62: - x[1,1,1] + x[4,0,1] + dif[1,4,1] >= 0
 p2: p[1,5] - 41.60270614225254 z[1,5] >= 0
 p3: p[1,5] - 60.36353380755174 z[1,5] - dcc[1,5] >= -60.36353380755174
 R65: dcc[1,5] <= 60.36353380755174
 R66: x[1,1,0] - x[5,0,0] + dif[1,5,0] >= 0
 R67: - x[1,1,0] + x[5,0,0] + dif[1,5,0] >= 0
 R68: x[1,1,1] - x[5,0,1] + dif[1,5,1] >= 0
 R69: - x[1,1,1] + x[5,0,1] + dif[1,5,1] >= 0
 p2: p[2,0] - 36.13198734583775 z[2,0] >= 0
 p3: p[2,0] - 56.899236025729 z[2,0] - dcc[2,0] >= -56.899236025729
 R72: dcc[2,0] <= 56.899236025729
 R73: - x[0,0,0] + x[2,1,0] + dif[2,0,0] >= 0
 R74: x[0,0,0] - x[2,1,0] + dif[2,0,0] >= 0
 R75: - x[0,0,1] + x[2,1,1] + dif[2,0,1] >= 0
 R76: x[0,0,1] - x[2,1,1] + dif[2,0,1] >= 0
 p2: p[2,1] - 19.79243373804216 z[2,1] >= 0
 p3: p[2,1] - 32.8478866957146 z[2,1] - dcc[2,1] >= -32.8478866957146
 R79: dcc[2,1] <= 32.8478866957146
 R80: - x[1,0,0] + x[2,1,0] + dif[2,1,0] >= 0
 R81: x[1,0,0] - x[2,1,0] + dif[2,1,0] >= 0
 R82: - x[1,0,1] + x[2,1,1] + dif[2,1,1] >= 0
 R83: x[1,0,1] - x[2,1,1] + dif[2,1,1] >= 0
 p2: p[2,3] - 29.87680371192273 z[2,3] >= 0
 p3: p[2,3] - 45.83325087309684 z[2,3] - dcc[2,3] >= -45.83325087309684
 R86: dcc[2,3] <= 45.83325087309684
 R87: x[2,1,0] - x[3,0,0] + dif[2,3,0] >= 0
 R88: - x[2,1,0] + x[3,0,0] + dif[2,3,0] >= 0
 R89: x[2,1,1] - x[3,0,1] + dif[2,3,1] >= 0
 R90: - x[2,1,1] + x[3,0,1] + dif[2,3,1] >= 0
 p2: p[2,4] - 35.13015128816712 z[2,4] >= 0
 p3: p[2,4] - 44.24551473463771 z[2,4] - dcc[2,4] >= -44.24551473463771
 R93: dcc[2,4] <= 44.24551473463771
 R94: x[2,1,0] - x[4,0,0] + dif[2,4,0] >= 0
 R95: - x[2,1,0] + x[4,0,0] + dif[2,4,0] >= 0
 R96: x[2,1,1] - x[4,0,1] + dif[2,4,1] >= 0
 R97: - x[2,1,1] + x[4,0,1] + dif[2,4,1] >= 0
 p2: p[2,5] - 47.55226369722447 z[2,5] >= 0
 p3: p[2,5] - 71.70254528434123 z[2,5] - dcc[2,5] >= -71.70254528434123
 R100: dcc[2,5] <= 71.70254528434123
 R101: x[2,1,0] - x[5,0,0] + dif[2,5,0] >= 0
 R102: - x[2,1,0] + x[5,0,0] + dif[2,5,0] >= 0
 R103: x[2,1,1] - x[5,0,1] + dif[2,5,1] >= 0
 R104: - x[2,1,1] + x[5,0,1] + dif[2,5,1] >= 0
 p2: p[3,0] - 14.24882526270977 z[3,0] >= 0
 p3: p[3,0] - 34.07469318239221 z[3,0] - dcc[3,0] >= -34.07469318239221
 R107: dcc[3,0] <= 34.07469318239221
 R108: - x[0,0,0] + x[3,1,0] + dif[3,0,0] >= 0
 R109: x[0,0,0] - x[3,1,0] + dif[3,0,0] >= 0
 R110: - x[0,0,1] + x[3,1,1] + dif[3,0,1] >= 0
 R111: x[0,0,1] - x[3,1,1] + dif[3,0,1] >= 0
 p2: p[3,1] - 50.20467776369988 z[3,1] >= 0
 p3: p[3,1] - 63.95026433211194 z[3,1] - dcc[3,1] >= -63.95026433211194
 R114: dcc[3,1] <= 63.95026433211194
 R115: - x[1,0,0] + x[3,1,0] + dif[3,1,0] >= 0
 R116: x[1,0,0] - x[3,1,0] + dif[3,1,0] >= 0
 R117: - x[1,0,1] + x[3,1,1] + dif[3,1,1] >= 0
 R118: x[1,0,1] - x[3,1,1] + dif[3,1,1] >= 0
 p2: p[3,2] - 29.87680371192273 z[3,2] >= 0
 p3: p[3,2] - 45.83325087309684 z[3,2] - dcc[3,2] >= -45.83325087309684
 R121: dcc[3,2] <= 45.83325087309684
 R122: - x[2,0,0] + x[3,1,0] + dif[3,2,0] >= 0
 R123: x[2,0,0] - x[3,1,0] + dif[3,2,0] >= 0
 R124: - x[2,0,1] + x[3,1,1] + dif[3,2,1] >= 0
 R125: x[2,0,1] - x[3,1,1] + dif[3,2,1] >= 0
 p2: p[3,4] - 67.99665400335421 z[3,4] >= 0
 p3: p[3,4] - 75.38829298156867 z[3,4] - dcc[3,4] >= -75.38829298156867
 R128: dcc[3,4] <= 75.38829298156867
 R129: x[3,1,0] - x[4,0,0] + dif[3,4,0] >= 0
 R130: - x[3,1,0] + x[4,0,0] + dif[3,4,0] >= 0
 R131: x[3,1,1] - x[4,0,1] + dif[3,4,1] >= 0
 R132: - x[3,1,1] + x[4,0,1] + dif[3,4,1] >= 0
 p2: p[3,5] - 52.25988098068681 z[3,5] >= 0
 p3: p[3,5] - 70.52018838161646 z[3,5] - dcc[3,5] >= -70.52018838161646
 R135: dcc[3,5] <= 70.52018838161646
 R136: x[3,1,0] - x[5,0,0] + dif[3,5,0] >= 0
 R137: - x[3,1,0] + x[5,0,0] + dif[3,5,0] >= 0
 R138: x[3,1,1] - x[5,0,1] + dif[3,5,1] >= 0
 R139: - x[3,1,1] + x[5,0,1] + dif[3,5,1] >= 0
 p2: p[4,0] - 63.21108571426412 z[4,0] >= 0
 p3: p[4,0] - 74.28678407035702 z[4,0] - dcc[4,0] >= -74.28678407035702
 R142: dcc[4,0] <= 74.28678407035702
 R143: - x[0,0,0] + x[4,1,0] + dif[4,0,0] >= 0
 R144: x[0,0,0] - x[4,1,0] + dif[4,0,0] >= 0
 R145: - x[0,0,1] + x[4,1,1] + dif[4,0,1] >= 0
 R146: x[0,0,1] - x[4,1,1] + dif[4,0,1] >= 0
 p2: p[4,1] - 10.9303655279118 z[4,1] >= 0
 p3: p[4,1] - 19.49495235838991 z[4,1] - dcc[4,1] >= -19.49495235838991
 R149: dcc[4,1] <= 19.49495235838991
 R150: - x[1,0,0] + x[4,1,0] + dif[4,1,0] >= 0
 R151: x[1,0,0] - x[4,1,0] + dif[4,1,0] >= 0
 R152: - x[1,0,1] + x[4,1,1] + dif[4,1,1] >= 0
 R153: x[1,0,1] - x[4,1,1] + dif[4,1,1] >= 0
 p2: p[4,2] - 35.13015128816712 z[4,2] >= 0
 p3: p[4,2] - 44.24551473463771 z[4,2] - dcc[4,2] >= -44.24551473463771
 R156: dcc[4,2] <= 44.24551473463771
 R157: - x[2,0,0] + x[4,1,0] + dif[4,2,0] >= 0
 R158: x[2,0,0] - x[4,1,0] + dif[4,2,0] >= 0
 R159: - x[2,0,1] + x[4,1,1] + dif[4,2,1] >= 0
 R160: x[2,0,1] - x[4,1,1] + dif[4,2,1] >= 0
 p2: p[4,3] - 67.99665400335421 z[4,3] >= 0
 p3: p[4,3] - 75.38829298156867 z[4,3] - dcc[4,3] >= -75.38829298156867
 R163: dcc[4,3] <= 75.38829298156867
 R164: - x[3,0,0] + x[4,1,0] + dif[4,3,0] >= 0
 R165: x[3,0,0] - x[4,1,0] + dif[4,3,0] >= 0
 R166: - x[3,0,1] + x[4,1,1] + dif[4,3,1] >= 0
 R167: x[3,0,1] - x[4,1,1] + dif[4,3,1] >= 0
 p2: p[4,5] - 47.73474723806184 z[4,5] >= 0
 p3: p[4,5] - 63.79271134685888 z[4,5] - dcc[4,5] >= -63.79271134685888
 R170: dcc[4,5] <= 63.79271134685888
 R171: x[4,1,0] - x[5,0,0] + dif[4,5,0] >= 0
 R172: - x[4,1,0] + x[5,0,0] + dif[4,5,0] >= 0
 R173: x[4,1,1] - x[5,0,1] + dif[4,5,1] >= 0
 R174: - x[4,1,1] + x[5,0,1] + dif[4,5,1] >= 0
 p2: p[5,0] - 32.5254966185824 z[5,0] >= 0
 p3: p[5,0] - 52.4331195472465 z[5,0] - dcc[5,0] >= -52.4331195472465
 R177: dcc[5,0] <= 52.4331195472465
 R178: - x[0,0,0] + x[5,1,0] + dif[5,0,0] >= 0
 R179: x[0,0,0] - x[5,1,0] + dif[5,0,0] >= 0
 R180: - x[0,0,1] + x[5,1,1] + dif[5,0,1] >= 0
 R181: x[0,0,1] - x[5,1,1] + dif[5,0,1] >= 0
 p2: p[5,1] - 41.60270614225254 z[5,1] >= 0
 p3: p[5,1] - 60.36353380755174 z[5,1] - dcc[5,1] >= -60.36353380755174
 R184: dcc[5,1] <= 60.36353380755174
 R185: - x[1,0,0] + x[5,1,0] + dif[5,1,0] >= 0
 R186: x[1,0,0] - x[5,1,0] + dif[5,1,0] >= 0
 R187: - x[1,0,1] + x[5,1,1] + dif[5,1,1] >= 0
 R188: x[1,0,1] - x[5,1,1] + dif[5,1,1] >= 0
 p2: p[5,2] - 47.55226369722447 z[5,2] >= 0
 p3: p[5,2] - 71.70254528434123 z[5,2] - dcc[5,2] >= -71.70254528434123
 R191: dcc[5,2] <= 71.70254528434123
 R192: - x[2,0,0] + x[5,1,0] + dif[5,2,0] >= 0
 R193: x[2,0,0] - x[5,1,0] + dif[5,2,0] >= 0
 R194: - x[2,0,1] + x[5,1,1] + dif[5,2,1] >= 0
 R195: x[2,0,1] - x[5,1,1] + dif[5,2,1] >= 0
 p2: p[5,3] - 52.25988098068681 z[5,3] >= 0
 p3: p[5,3] - 70.52018838161646 z[5,3] - dcc[5,3] >= -70.52018838161646
 R198: dcc[5,3] <= 70.52018838161646
 R199: - x[3,0,0] + x[5,1,0] + dif[5,3,0] >= 0
 R200: x[3,0,0] - x[5,1,0] + dif[5,3,0] >= 0
 R201: - x[3,0,1] + x[5,1,1] + dif[5,3,1] >= 0
 R202: x[3,0,1] - x[5,1,1] + dif[5,3,1] >= 0
 p2: p[5,4] - 47.73474723806184 z[5,4] >= 0
 p3: p[5,4] - 63.79271134685888 z[5,4] - dcc[5,4] >= -63.79271134685888
 R205: dcc[5,4] <= 63.79271134685888
 R206: - x[4,0,0] + x[5,1,0] + dif[5,4,0] >= 0
 R207: x[4,0,0] - x[5,1,0] + dif[5,4,0] >= 0
 R208: - x[4,0,1] + x[5,1,1] + dif[5,4,1] >= 0
 R209: x[4,0,1] - x[5,1,1] + dif[5,4,1] >= 0
 R210: z[0,1] + z[0,2] + z[0,3] + z[0,4] + z[0,5] = 1
 R211: z[1,0] + z[1,2] + z[1,3] + z[1,4] + z[1,5] = 1
 R212: z[2,0] + z[2,1] + z[2,3] + z[2,4] + z[2,5] = 1
 R213: z[3,0] + z[3,1] + z[3,2] + z[3,4] + z[3,5] = 1
 R214: z[4,0] + z[4,1] + z[4,2] + z[4,3] + z[4,5] = 1
 R215: z[5,0] + z[5,1] + z[5,2] + z[5,3] + z[5,4] = 1
 R216: z[1,0] + z[2,0] + z[3,0] + z[4,0] + z[5,0] = 1
 R217: z[0,1] + z[2,1] + z[3,1] + z[4,1] + z[5,1] = 1
 R218: z[0,2] + z[1,2] + z[3,2] + z[4,2] + z[5,2] = 1
 R219: z[0,3] + z[1,3] + z[2,3] + z[4,3] + z[5,3] = 1
 R220: z[0,4] + z[1,4] + z[2,4] + z[3,4] + z[5,4] = 1
 R221: z[0,5] + z[1,5] + z[2,5] + z[3,5] + z[4,5] = 1
 rest7: z[0,1] + z[1,0] <= 1
 rest7: z[0,2] + z[2,0] <= 1
 rest7: z[0,3] + z[3,0] <= 1
 rest7: z[0,4] + z[4,0] <= 1
 rest7: z[0,5] + z[5,0] <= 1
 rest7: z[0,1] + z[1,0] <= 1
 rest7: z[1,2] + z[2,1] <= 1
 rest7: z[1,3] + z[3,1] <= 1
 rest7: z[1,4] + z[4,1] <= 1
 rest7: z[1,5] + z[5,1] <= 1
 rest7: z[0,2] + z[2,0] <= 1
 rest7: z[1,2] + z[2,1] <= 1
 rest7: z[2,3] + z[3,2] <= 1
 rest7: z[2,4] + z[4,2] <= 1
 rest7: z[2,5] + z[5,2] <= 1
 rest7: z[0,3] + z[3,0] <= 1
 rest7: z[1,3] + z[3,1] <= 1
 rest7: z[2,3] + z[3,2] <= 1
 rest7: z[3,4] + z[4,3] <= 1
 rest7: z[3,5] + z[5,3] <= 1
 rest7: z[0,4] + z[4,0] <= 1
 rest7: z[1,4] + z[4,1] <= 1
 rest7: z[2,4] + z[4,2] <= 1
 rest7: z[3,4] + z[4,3] <= 1
 rest7: z[4,5] + z[5,4] <= 1
 rest7: z[0,5] + z[5,0] <= 1
 rest7: z[1,5] + z[5,1] <= 1
 rest7: z[2,5] + z[5,2] <= 1
 rest7: z[3,5] + z[5,3] <= 1
 rest7: z[4,5] + z[5,4] <= 1
 R252: 6 z[1,2] + sc[1] - sc[2] <= 5
 R253: 6 z[1,3] + sc[1] - sc[3] <= 5
 R254: 6 z[1,4] + sc[1] - sc[4] <= 5
 R255: 6 z[1,5] + sc[1] - sc[5] <= 5
 R256: 6 z[2,1] - sc[1] + sc[2] <= 5
 R257: 6 z[2,3] + sc[2] - sc[3] <= 5
 R258: 6 z[2,4] + sc[2] - sc[4] <= 5
 R259: 6 z[2,5] + sc[2] - sc[5] <= 5
 R260: 6 z[3,1] - sc[1] + sc[3] <= 5
 R261: 6 z[3,2] - sc[2] + sc[3] <= 5
 R262: 6 z[3,4] + sc[3] - sc[4] <= 5
 R263: 6 z[3,5] + sc[3] - sc[5] <= 5
 R264: 6 z[4,1] - sc[1] + sc[4] <= 5
 R265: 6 z[4,2] - sc[2] + sc[4] <= 5
 R266: 6 z[4,3] - sc[3] + sc[4] <= 5
 R267: 6 z[4,5] + sc[4] - sc[5] <= 5
 R268: 6 z[5,1] - sc[1] + sc[5] <= 5
 R269: 6 z[5,2] - sc[2] + sc[5] <= 5
 R270: 6 z[5,3] - sc[3] + sc[5] <= 5
 R271: 6 z[5,4] - sc[4] + sc[5] <= 5
 rest10: sc[0] = 0
 rest11: sc[1] >= 1
 rest11: sc[2] >= 1
 rest11: sc[3] >= 1
 rest11: sc[4] >= 1
 rest11: sc[5] >= 1
 u0: landa[0,0] - landa[0,1] + min[0] - max[0] = 0
 u1: min[0] + max[0] = 4
 u2: 4 u[0] + max[0] <= 4
 u3: - 4 u[0] + min[0] <= 0
 R282: dc[0] = 26.18949566106235
 R283: landa[0,0] - sublanda[0,0,1] - 5 s[0,0,0] >= -4
 R284: landa[0,0] - sublanda[0,0,1] + 5 s[0,0,0] <= 6
 R285: landa[0,0] - sublanda[0,0,2] - 5 s[0,0,1] >= -3
 R286: landa[0,0] - sublanda[0,0,2] + 5 s[0,0,1] <= 7
 R287: landa[0,0] - sublanda[0,0,3] - 5 s[0,0,2] >= -2
 R288: landa[0,0] - sublanda[0,0,3] + 5 s[0,0,2] <= 8
 R289: landa[0,0] - sublanda[0,0,4] - 5 s[0,0,3] >= -1
 R290: landa[0,0] - sublanda[0,0,4] + 5 s[0,0,3] <= 9
 R291: sublanda[0,0,0] - s[0,0,0] <= 0
 R292: sublanda[0,0,4] - s[0,0,3] <= 0
 R293: sublanda[0,0,1] - s[0,0,0] - s[0,0,1] <= 0
 R294: sublanda[0,0,2] - s[0,0,1] - s[0,0,2] <= 0
 R295: sublanda[0,0,3] - s[0,0,2] - s[0,0,3] <= 0
 R296: s[0,0,0] + s[0,0,1] + s[0,0,2] + s[0,0,3] = 1
 R297: sublanda[0,0,0] + sublanda[0,0,1] + sublanda[0,0,2]
   + sublanda[0,0,3] + sublanda[0,0,4] = 1
 seg1: x[0,0,0] - 41.06337306424611 sublanda[0,0,0]
   - 41.82343559670595 sublanda[0,0,1] - 48.36595243533131 sublanda[0,0,2]
   - 49.62427531941525 sublanda[0,0,3] - 43.46995473938324 sublanda[0,0,4]
   = 0
 seg1: x[0,0,1] - 9.00106873113222 sublanda[0,0,0]
   - 15.50417645998394 sublanda[0,0,1] - 15.75632443757604 sublanda[0,0,2]
   - 9.331005090983925 sublanda[0,0,3] - 7.096627462986672 sublanda[0,0,4]
   = 0
 R300: landa[0,1] - sublanda[0,1,1] - 5 s[0,1,0] >= -4
 R301: landa[0,1] - sublanda[0,1,1] + 5 s[0,1,0] <= 6
 R302: landa[0,1] - sublanda[0,1,2] - 5 s[0,1,1] >= -3
 R303: landa[0,1] - sublanda[0,1,2] + 5 s[0,1,1] <= 7
 R304: landa[0,1] - sublanda[0,1,3] - 5 s[0,1,2] >= -2
 R305: landa[0,1] - sublanda[0,1,3] + 5 s[0,1,2] <= 8
 R306: landa[0,1] - sublanda[0,1,4] - 5 s[0,1,3] >= -1
 R307: landa[0,1] - sublanda[0,1,4] + 5 s[0,1,3] <= 9
 R308: sublanda[0,1,0] - s[0,1,0] <= 0
 R309: sublanda[0,1,4] - s[0,1,3] <= 0
 R310: sublanda[0,1,1] - s[0,1,0] - s[0,1,1] <= 0
 R311: sublanda[0,1,2] - s[0,1,1] - s[0,1,2] <= 0
 R312: sublanda[0,1,3] - s[0,1,2] - s[0,1,3] <= 0
 R313: s[0,1,0] + s[0,1,1] + s[0,1,2] + s[0,1,3] = 1
 R314: sublanda[0,1,0] + sublanda[0,1,1] + sublanda[0,1,2]
   + sublanda[0,1,3] + sublanda[0,1,4] = 1
 seg1: x[0,1,0] - 41.06337306424611 sublanda[0,1,0]
   - 41.82343559670595 sublanda[0,1,1] - 48.36595243533131 sublanda[0,1,2]
   - 49.62427531941525 sublanda[0,1,3] - 43.46995473938324 sublanda[0,1,4]
   = 0
 seg1: x[0,1,1] - 9.00106873113222 sublanda[0,1,0]
   - 15.50417645998394 sublanda[0,1,1] - 15.75632443757604 sublanda[0,1,2]
   - 9.331005090983925 sublanda[0,1,3] - 7.096627462986672 sublanda[0,1,4]
   = 0
 u0: landa[1,0] - landa[1,1] + min[1] - max[1] = 0
 u1: min[1] + max[1] = 4
 u2: 4 u[1] + max[1] <= 4
 u3: - 4 u[1] + min[1] <= 0
 R321: dc[1] = 20.64554798077501
 R322: landa[1,0] - sublanda[1,0,1] - 5 s[1,0,0] >= -4
 R323: landa[1,0] - sublanda[1,0,1] + 5 s[1,0,0] <= 6
 R324: landa[1,0] - sublanda[1,0,2] - 5 s[1,0,1] >= -3
 R325: landa[1,0] - sublanda[1,0,2] + 5 s[1,0,1] <= 7
 R326: landa[1,0] - sublanda[1,0,3] - 5 s[1,0,2] >= -2
 R327: landa[1,0] - sublanda[1,0,3] + 5 s[1,0,2] <= 8
 R328: landa[1,0] - sublanda[1,0,4] - 5 s[1,0,3] >= -1
 R329: landa[1,0] - sublanda[1,0,4] + 5 s[1,0,3] <= 9
 R330: sublanda[1,0,0] - s[1,0,0] <= 0
 R331: sublanda[1,0,4] - s[1,0,3] <= 0
 R332: sublanda[1,0,1] - s[1,0,0] - s[1,0,1] <= 0
 R333: sublanda[1,0,2] - s[1,0,1] - s[1,0,2] <= 0
 R334: sublanda[1,0,3] - s[1,0,2] - s[1,0,3] <= 0
 R335: s[1,0,0] + s[1,0,1] + s[1,0,2] + s[1,0,3] = 1
 R336: sublanda[1,0,0] + sublanda[1,0,1] + sublanda[1,0,2]
   + sublanda[1,0,3] + sublanda[1,0,4] = 1
 seg1: x[1,0,0] - 56.37979041283248 sublanda[1,0,0]
   - 59.05407102238357 sublanda[1,0,1] - 63.82828507060376 sublanda[1,0,2]
   - 62.62686333907594 sublanda[1,0,3] - 57.4820072028265 sublanda[1,0,4]
   = 0
 seg1: x[1,0,1] - 64.65315801678162 sublanda[1,0,0]
   - 69.06769524457053 sublanda[1,0,1] - 67.10637019860488 sublanda[1,0,2]
   - 62.08675850673389 sublanda[1,0,3] - 62.49951879001187 sublanda[1,0,4]
   = 0
 R339: landa[1,1] - sublanda[1,1,1] - 5 s[1,1,0] >= -4
 R340: landa[1,1] - sublanda[1,1,1] + 5 s[1,1,0] <= 6
 R341: landa[1,1] - sublanda[1,1,2] - 5 s[1,1,1] >= -3
 R342: landa[1,1] - sublanda[1,1,2] + 5 s[1,1,1] <= 7
 R343: landa[1,1] - sublanda[1,1,3] - 5 s[1,1,2] >= -2
 R344: landa[1,1] - sublanda[1,1,3] + 5 s[1,1,2] <= 8
 R345: landa[1,1] - sublanda[1,1,4] - 5 s[1,1,3] >= -1
 R346: landa[1,1] - sublanda[1,1,4] + 5 s[1,1,3] <= 9
 R347: sublanda[1,1,0] - s[1,1,0] <= 0
 R348: sublanda[1,1,4] - s[1,1,3] <= 0
 R349: sublanda[1,1,1] - s[1,1,0] - s[1,1,1] <= 0
 R350: sublanda[1,1,2] - s[1,1,1] - s[1,1,2] <= 0
 R351: sublanda[1,1,3] - s[1,1,2] - s[1,1,3] <= 0
 R352: s[1,1,0] + s[1,1,1] + s[1,1,2] + s[1,1,3] = 1
 R353: sublanda[1,1,0] + sublanda[1,1,1] + sublanda[1,1,2]
   + sublanda[1,1,3] + sublanda[1,1,4] = 1
 seg1: x[1,1,0] - 56.37979041283248 sublanda[1,1,0]
   - 59.05407102238357 sublanda[1,1,1] - 63.82828507060376 sublanda[1,1,2]
   - 62.62686333907594 sublanda[1,1,3] - 57.4820072028265 sublanda[1,1,4]
   = 0
 seg1: x[1,1,1] - 64.65315801678162 sublanda[1,1,0]
   - 69.06769524457053 sublanda[1,1,1] - 67.10637019860488 sublanda[1,1,2]
   - 62.08675850673389 sublanda[1,1,3] - 62.49951879001187 sublanda[1,1,4]
   = 0
 u0: landa[2,0] - landa[2,1] + min[2] - max[2] = 0
 u1: min[2] + max[2] = 2
 u2: 2 u[2] + max[2] <= 2
 u3: - 2 u[2] + min[2] <= 0
 R360: dc[2] = 17.0897197732959
 R361: landa[2,0] - sublanda[2,0,1] - 3 s[2,0,0] >= -2
 R362: landa[2,0] - sublanda[2,0,1] + 3 s[2,0,0] <= 4
 R363: landa[2,0] - sublanda[2,0,2] - 3 s[2,0,1] >= -1
 R364: landa[2,0] - sublanda[2,0,2] + 3 s[2,0,1] <= 5
 R365: sublanda[2,0,0] - s[2,0,0] <= 0
 R366: sublanda[2,0,2] - s[2,0,1] <= 0
 R367: sublanda[2,0,1] - s[2,0,0] - s[2,0,1] <= 0
 R368: s[2,0,0] + s[2,0,1] = 1
 R369: sublanda[2,0,0] + sublanda[2,0,1] + sublanda[2,0,2] = 1
 seg1: x[2,0,0] - 40.94430977891811 sublanda[2,0,0]
   - 33.1999962171331 sublanda[2,0,1] - 35.57333225939489 sublanda[2,0,2]
   = 0
 seg1: x[2,0,1] - 51.625467236426 sublanda[2,0,0]
   - 55.23659419891264 sublanda[2,0,1] - 63.44524247453917 sublanda[2,0,2]
   = 0
 R372: landa[2,1] - sublanda[2,1,1] - 3 s[2,1,0] >= -2
 R373: landa[2,1] - sublanda[2,1,1] + 3 s[2,1,0] <= 4
 R374: landa[2,1] - sublanda[2,1,2] - 3 s[2,1,1] >= -1
 R375: landa[2,1] - sublanda[2,1,2] + 3 s[2,1,1] <= 5
 R376: sublanda[2,1,0] - s[2,1,0] <= 0
 R377: sublanda[2,1,2] - s[2,1,1] <= 0
 R378: sublanda[2,1,1] - s[2,1,0] - s[2,1,1] <= 0
 R379: s[2,1,0] + s[2,1,1] = 1
 R380: sublanda[2,1,0] + sublanda[2,1,1] + sublanda[2,1,2] = 1
 seg1: x[2,1,0] - 40.94430977891811 sublanda[2,1,0]
   - 33.1999962171331 sublanda[2,1,1] - 35.57333225939489 sublanda[2,1,2]
   = 0
 seg1: x[2,1,1] - 51.625467236426 sublanda[2,1,0]
   - 55.23659419891264 sublanda[2,1,1] - 63.44524247453917 sublanda[2,1,2]
   = 0
 u0: landa[3,0] - landa[3,1] + min[3] - max[3] = 0
 u1: min[3] + max[3] = 2
 u2: 2 u[3] + max[3] <= 2
 u3: - 2 u[3] + min[3] <= 0
 R387: dc[3] = 15.49846061845454
 R388: landa[3,0] - sublanda[3,0,1] - 3 s[3,0,0] >= -2
 R389: landa[3,0] - sublanda[3,0,1] + 3 s[3,0,0] <= 4
 R390: landa[3,0] - sublanda[3,0,2] - 3 s[3,0,1] >= -1
 R391: landa[3,0] - sublanda[3,0,2] + 3 s[3,0,1] <= 5
 R392: sublanda[3,0,0] - s[3,0,0] <= 0
 R393: sublanda[3,0,2] - s[3,0,1] <= 0
 R394: sublanda[3,0,1] - s[3,0,0] - s[3,0,1] <= 0
 R395: s[3,0,0] + s[3,0,1] = 1
 R396: sublanda[3,0,0] + sublanda[3,0,1] + sublanda[3,0,2] = 1
 seg1: x[3,0,0] - 27.85242525886767 sublanda[3,0,0]
   - 20.34287575322571 sublanda[3,0,1] - 21.07401893461156 sublanda[3,0,2]
   = 0
 seg1: x[3,0,1] - 18.30415708621189 sublanda[3,0,0]
   - 20.21654737267517 sublanda[3,0,1] - 27.93120874137824 sublanda[3,0,2]
   = 0
 R399: landa[3,1] - sublanda[3,1,1] - 3 s[3,1,0] >= -2
 R400: landa[3,1] - sublanda[3,1,1] + 3 s[3,1,0] <= 4
 R401: landa[3,1] - sublanda[3,1,2] - 3 s[3,1,1] >= -1
 R402: landa[3,1] - sublanda[3,1,2] + 3 s[3,1,1] <= 5
 R403: sublanda[3,1,0] - s[3,1,0] <= 0
 R404: sublanda[3,1,2] - s[3,1,1] <= 0
 R405: sublanda[3,1,1] - s[3,1,0] - s[3,1,1] <= 0
 R406: s[3,1,0] + s[3,1,1] = 1
 R407: sublanda[3,1,0] + sublanda[3,1,1] + sublanda[3,1,2] = 1
 seg1: x[3,1,0] - 27.85242525886767 sublanda[3,1,0]
   - 20.34287575322571 sublanda[3,1,1] - 21.07401893461156 sublanda[3,1,2]
   = 0
 seg1: x[3,1,1] - 18.30415708621189 sublanda[3,1,0]
   - 20.21654737267517 sublanda[3,1,1] - 27.93120874137824 sublanda[3,1,2]
   = 0
 u0: landa[4,0] - landa[4,1] + min[4] - max[4] = 0
 u1: min[4] + max[4] = 1
 u2: u[4] + max[4] <= 1
 u3: - u[4] + min[4] <= 0
 R414: dc[4] = 6.472907894059396
 R415: landa[4,0] - sublanda[4,0,1] - 2 s[4,0,0] >= -1
 R416: landa[4,0] - sublanda[4,0,1] + 2 s[4,0,0] <= 3
 R417: sublanda[4,0,0] - s[4,0,0] <= 0
 R418: sublanda[4,0,1] - s[4,0,0] <= 0
 R419: s[4,0,0] = 1
 R420: sublanda[4,0,0] + sublanda[4,0,1] = 1
 seg1: x[4,0,0] - 73.35442131810494 sublanda[4,0,0]
   - 67.87278307693879 sublanda[4,0,1] = 0
 seg1: x[4,0,1] - 73.81851333939665 sublanda[4,0,0]
   - 77.26092220499662 sublanda[4,0,1] = 0
 R423: landa[4,1] - sublanda[4,1,1] - 2 s[4,1,0] >= -1
 R424: landa[4,1] - sublanda[4,1,1] + 2 s[4,1,0] <= 3
 R425: sublanda[4,1,0] - s[4,1,0] <= 0
 R426: sublanda[4,1,1] - s[4,1,0] <= 0
 R427: s[4,1,0] = 1
 R428: sublanda[4,1,0] + sublanda[4,1,1] = 1
 seg1: x[4,1,0] - 73.35442131810494 sublanda[4,1,0]
   - 67.87278307693879 sublanda[4,1,1] = 0
 seg1: x[4,1,1] - 73.81851333939665 sublanda[4,1,0]
   - 77.26092220499662 sublanda[4,1,1] = 0
 u0: landa[5,0] - landa[5,1] + min[5] - max[5] = 0
 u1: min[5] + max[5] = 4
 u2: 4 u[5] + max[5] <= 4
 u3: - 4 u[5] + min[5] <= 0
 R435: dc[5] = 33.65478730097054
 R436: landa[5,0] - sublanda[5,0,1] - 5 s[5,0,0] >= -4
 R437: landa[5,0] - sublanda[5,0,1] + 5 s[5,0,0] <= 6
 R438: landa[5,0] - sublanda[5,0,2] - 5 s[5,0,1] >= -3
 R439: landa[5,0] - sublanda[5,0,2] + 5 s[5,0,1] <= 7
 R440: landa[5,0] - sublanda[5,0,3] - 5 s[5,0,2] >= -2
 R441: landa[5,0] - sublanda[5,0,3] + 5 s[5,0,2] <= 8
 R442: landa[5,0] - sublanda[5,0,4] - 5 s[5,0,3] >= -1
 R443: landa[5,0] - sublanda[5,0,4] + 5 s[5,0,3] <= 9
 R444: sublanda[5,0,0] - s[5,0,0] <= 0
 R445: sublanda[5,0,4] - s[5,0,3] <= 0
 R446: sublanda[5,0,1] - s[5,0,0] - s[5,0,1] <= 0
 R447: sublanda[5,0,2] - s[5,0,1] - s[5,0,2] <= 0
 R448: sublanda[5,0,3] - s[5,0,2] - s[5,0,3] <= 0
 R449: s[5,0,0] + s[5,0,1] + s[5,0,2] + s[5,0,3] = 1
 R450: sublanda[5,0,0] + sublanda[5,0,1] + sublanda[5,0,2]
   + sublanda[5,0,3] + sublanda[5,0,4] = 1
 seg1: x[5,0,0] - 90.61307003575102 sublanda[5,0,0]
   - 90.81922549084663 sublanda[5,0,1] - 82.54052252449164 sublanda[5,0,2]
   - 79.78036319789821 sublanda[5,0,3] - 87.20754900815767 sublanda[5,0,4]
   = 0
 seg1: x[5,0,1] - 26.14923351596792 sublanda[5,0,0]
   - 17.73806271783094 sublanda[5,0,1] - 16.23693931785248 sublanda[5,0,2]
   - 24.18500919417575 sublanda[5,0,3] - 28.1381351986156 sublanda[5,0,4]
   = 0
 R453: landa[5,1] - sublanda[5,1,1] - 5 s[5,1,0] >= -4
 R454: landa[5,1] - sublanda[5,1,1] + 5 s[5,1,0] <= 6
 R455: landa[5,1] - sublanda[5,1,2] - 5 s[5,1,1] >= -3
 R456: landa[5,1] - sublanda[5,1,2] + 5 s[5,1,1] <= 7
 R457: landa[5,1] - sublanda[5,1,3] - 5 s[5,1,2] >= -2
 R458: landa[5,1] - sublanda[5,1,3] + 5 s[5,1,2] <= 8
 R459: landa[5,1] - sublanda[5,1,4] - 5 s[5,1,3] >= -1
 R460: landa[5,1] - sublanda[5,1,4] + 5 s[5,1,3] <= 9
 R461: sublanda[5,1,0] - s[5,1,0] <= 0
 R462: sublanda[5,1,4] - s[5,1,3] <= 0
 R463: sublanda[5,1,1] - s[5,1,0] - s[5,1,1] <= 0
 R464: sublanda[5,1,2] - s[5,1,1] - s[5,1,2] <= 0
 R465: sublanda[5,1,3] - s[5,1,2] - s[5,1,3] <= 0
 R466: s[5,1,0] + s[5,1,1] + s[5,1,2] + s[5,1,3] = 1
 R467: sublanda[5,1,0] + sublanda[5,1,1] + sublanda[5,1,2]
   + sublanda[5,1,3] + sublanda[5,1,4] = 1
 seg1: x[5,1,0] - 90.61307003575102 sublanda[5,1,0]
   - 90.81922549084663 sublanda[5,1,1] - 82.54052252449164 sublanda[5,1,2]
   - 79.78036319789821 sublanda[5,1,3] - 87.20754900815767 sublanda[5,1,4]
   = 0
 seg1: x[5,1,1] - 26.14923351596792 sublanda[5,1,0]
   - 17.73806271783094 sublanda[5,1,1] - 16.23693931785248 sublanda[5,1,2]
   - 24.18500919417575 sublanda[5,1,3] - 28.1381351986156 sublanda[5,1,4]
   = 0
 qc0: [ - dcc[0,1] ^2 + dif[0,1,0] ^2 + dif[0,1,1] ^2 ] <= 0
 qc1: [ - dcc[0,2] ^2 + dif[0,2,0] ^2 + dif[0,2,1] ^2 ] <= 0
 qc2: [ - dcc[0,3] ^2 + dif[0,3,0] ^2 + dif[0,3,1] ^2 ] <= 0
 qc3: [ - dcc[0,4] ^2 + dif[0,4,0] ^2 + dif[0,4,1] ^2 ] <= 0
 qc4: [ - dcc[0,5] ^2 + dif[0,5,0] ^2 + dif[0,5,1] ^2 ] <= 0
 qc5: [ - dcc[1,0] ^2 + dif[1,0,0] ^2 + dif[1,0,1] ^2 ] <= 0
 qc6: [ - dcc[1,2] ^2 + dif[1,2,0] ^2 + dif[1,2,1] ^2 ] <= 0
 qc7: [ - dcc[1,3] ^2 + dif[1,3,0] ^2 + dif[1,3,1] ^2 ] <= 0
 qc8: [ - dcc[1,4] ^2 + dif[1,4,0] ^2 + dif[1,4,1] ^2 ] <= 0
 qc9: [ - dcc[1,5] ^2 + dif[1,5,0] ^2 + dif[1,5,1] ^2 ] <= 0
 qc10: [ - dcc[2,0] ^2 + dif[2,0,0] ^2 + dif[2,0,1] ^2 ] <= 0
 qc11: [ - dcc[2,1] ^2 + dif[2,1,0] ^2 + dif[2,1,1] ^2 ] <= 0
 qc12: [ - dcc[2,3] ^2 + dif[2,3,0] ^2 + dif[2,3,1] ^2 ] <= 0
 qc13: [ - dcc[2,4] ^2 + dif[2,4,0] ^2 + dif[2,4,1] ^2 ] <= 0
 qc14: [ - dcc[2,5] ^2 + dif[2,5,0] ^2 + dif[2,5,1] ^2 ] <= 0
 qc15: [ - dcc[3,0] ^2 + dif[3,0,0] ^2 + dif[3,0,1] ^2 ] <= 0
 qc16: [ - dcc[3,1] ^2 + dif[3,1,0] ^2 + dif[3,1,1] ^2 ] <= 0
 qc17: [ - dcc[3,2] ^2 + dif[3,2,0] ^2 + dif[3,2,1] ^2 ] <= 0
 qc18: [ - dcc[3,4] ^2 + dif[3,4,0] ^2 + dif[3,4,1] ^2 ] <= 0
 qc19: [ - dcc[3,5] ^2 + dif[3,5,0] ^2 + dif[3,5,1] ^2 ] <= 0
 qc20: [ - dcc[4,0] ^2 + dif[4,0,0] ^2 + dif[4,0,1] ^2 ] <= 0
 qc21: [ - dcc[4,1] ^2 + dif[4,1,0] ^2 + dif[4,1,1] ^2 ] <= 0
 qc22: [ - dcc[4,2] ^2 + dif[4,2,0] ^2 + dif[4,2,1] ^2 ] <= 0
 qc23: [ - dcc[4,3] ^2 + dif[4,3,0] ^2 + dif[4,3,1] ^2 ] <= 0
 qc24: [ - dcc[4,5] ^2 + dif[4,5,0] ^2 + dif[4,5,1] ^2 ] <= 0
 qc25: [ - dcc[5,0] ^2 + dif[5,0,0] ^2 + dif[5,0,1] ^2 ] <= 0
 qc26: [ - dcc[5,1] ^2 + dif[5,1,0] ^2 + dif[5,1,1] ^2 ] <= 0
 qc27: [ - dcc[5,2] ^2 + dif[5,2,0] ^2 + dif[5,2,1] ^2 ] <= 0
 qc28: [ - dcc[5,3] ^2 + dif[5,3,0] ^2 + dif[5,3,1] ^2 ] <= 0
 qc29: [ - dcc[5,4] ^2 + dif[5,4,0] ^2 + dif[5,4,1] ^2 ] <= 0
Bounds
 sublanda[0,0,0] <= 1
 sublanda[0,1,0] <= 1
 sublanda[0,0,1] <= 1
 sublanda[0,1,1] <= 1
 sublanda[0,0,2] <= 1
 sublanda[0,1,2] <= 1
 sublanda[0,0,3] <= 1
 sublanda[0,1,3] <= 1
 sublanda[0,0,4] <= 1
 sublanda[0,1,4] <= 1
 sublanda[1,0,0] <= 1
 sublanda[1,1,0] <= 1
 sublanda[1,0,1] <= 1
 sublanda[1,1,1] <= 1
 sublanda[1,0,2] <= 1
 sublanda[1,1,2] <= 1
 sublanda[1,0,3] <= 1
 sublanda[1,1,3] <= 1
 sublanda[1,0,4] <= 1
 sublanda[1,1,4] <= 1
 sublanda[2,0,0] <= 1
 sublanda[2,1,0] <= 1
 sublanda[2,0,1] <= 1
 sublanda[2,1,1] <= 1
 sublanda[2,0,2] <= 1
 sublanda[2,1,2] <= 1
 sublanda[3,0,0] <= 1
 sublanda[3,1,0] <= 1
 sublanda[3,0,1] <= 1
 sublanda[3,1,1] <= 1
 sublanda[3,0,2] <= 1
 sublanda[3,1,2] <= 1
 sublanda[4,0,0] <= 1
 sublanda[4,1,0] <= 1
 sublanda[4,0,1] <= 1
 sublanda[4,1,1] <= 1
 sublanda[5,0,0] <= 1
 sublanda[5,1,0] <= 1
 sublanda[5,0,1] <= 1
 sublanda[5,1,1] <= 1
 sublanda[5,0,2] <= 1
 sublanda[5,1,2] <= 1
 sublanda[5,0,3] <= 1
 sublanda[5,1,3] <= 1
 sublanda[5,0,4] <= 1
 sublanda[5,1,4] <= 1
 sc[0] <= 5
 sc[1] <= 5
 sc[2] <= 5
 sc[3] <= 5
 sc[4] <= 5
 sc[5] <= 5
Binaries
 z[0,1] z[0,2] z[0,3] z[0,4] z[0,5] z[1,0] z[1,2] z[1,3] z[1,4] z[1,5]
 z[2,0] z[2,1] z[2,3] z[2,4] z[2,5] z[3,0] z[3,1] z[3,2] z[3,4] z[3,5]
 z[4,0] z[4,1] z[4,2] z[4,3] z[4,5] z[5,0] z[5,1] z[5,2] z[5,3] z[5,4]
 s[0,0,0] s[0,1,0] s[0,0,1] s[0,1,1] s[0,0,2] s[0,1,2] s[0,0,3] s[0,1,3]
 s[1,0,0] s[1,1,0] s[1,0,1] s[1,1,1] s[1,0,2] s[1,1,2] s[1,0,3] s[1,1,3]
 s[2,0,0] s[2,1,0] s[2,0,1] s[2,1,1] s[3,0,0] s[3,1,0] s[3,0,1] s[3,1,1]
 s[4,0,0] s[4,1,0] s[5,0,0] s[5,1,0] s[5,0,1] s[5,1,1] s[5,0,2] s[5,1,2]
 s[5,0,3] s[5,1,3] u[0] u[1] u[2] u[3] u[4] u[5]
End
